certificates/rado_a14_c244_N55.cnf
c Rad2 upper bound instance: x1 + 14*x2 - x3 = 244, interval [1,55]
p cnf 55 432
1 9 18 0
-1 -9 -18 0
1 19 23 0
-1 -19 -23 0
1 20 37 0
-1 -20 -37 0
1 21 51 0
-1 -21 -51 0
2 10 18 0
-2 -10 -18 0
2 19 24 0
-2 -19 -24 0
2 20 38 0
-2 -20 -38 0
2 21 52 0
-2 -21 -52 0
3 11 18 0
-3 -11 -18 0
3 19 25 0
-3 -19 -25 0
3 20 39 0
-3 -20 -39 0
3 21 53 0
-3 -21 -53 0
4 12 18 0
-4 -12 -18 0
4 19 26 0
-4 -19 -26 0
4 20 40 0
-4 -20 -40 0
4 21 54 0
-4 -21 -54 0
5 13 18 0
-5 -13 -18 0
5 19 27 0
-5 -19 -27 0
5 20 41 0
-5 -20 -41 0
5 21 55 0
-5 -21 -55 0
6 14 18 0
-6 -14 -18 0
6 19 28 0
-6 -19 -28 0
6 20 42 0
-6 -20 -42 0
1 7 17 0
-1 -7 -17 0
7 15 18 0
-7 -15 -18 0
7 19 29 0
-7 -19 -29 0
7 20 43 0
-7 -20 -43 0
2 8 17 0
-2 -8 -17 0
8 16 18 0
-8 -16 -18 0
8 19 30 0
-8 -19 -30 0
8 20 44 0
-8 -20 -44 0
3 9 17 0
-3 -9 -17 0
9 17 18 0
-9 -17 -18 0
9 19 31 0
-9 -19 -31 0
9 20 45 0
-9 -20 -45 0
4 10 17 0
-4 -10 -17 0
10 18 0
-10 -18 0
10 19 32 0
-10 -19 -32 0
10 20 46 0
-10 -20 -46 0
5 11 17 0
-5 -11 -17 0
11 18 19 0
-11 -18 -19 0
11 19 33 0
-11 -19 -33 0
11 20 47 0
-11 -20 -47 0
6 12 17 0
-6 -12 -17 0
12 18 20 0
-12 -18 -20 0
12 19 34 0
-12 -19 -34 0
12 20 48 0
-12 -20 -48 0
7 13 17 0
-7 -13 -17 0
13 18 21 0
-13 -18 -21 0
13 19 35 0
-13 -19 -35 0
13 20 49 0
-13 -20 -49 0
8 14 17 0
-8 -14 -17 0
14 18 22 0
-14 -18 -22 0
14 19 36 0
-14 -19 -36 0
14 20 50 0
-14 -20 -50 0
9 15 17 0
-9 -15 -17 0
15 18 23 0
-15 -18 -23 0
15 19 37 0
-15 -19 -37 0
15 20 51 0
-15 -20 -51 0
10 16 17 0
-10 -16 -17 0
16 18 24 0
-16 -18 -24 0
16 19 38 0
-16 -19 -38 0
16 20 52 0
-16 -20 -52 0
11 17 0
-11 -17 0
17 18 25 0
-17 -18 -25 0
17 19 39 0
-17 -19 -39 0
17 20 53 0
-17 -20 -53 0
12 17 18 0
-12 -17 -18 0
18 26 0
-18 -26 0
18 19 40 0
-18 -19 -40 0
18 20 54 0
-18 -20 -54 0
13 17 19 0
-13 -17 -19 0
18 19 27 0
-18 -19 -27 0
19 41 0
-19 -41 0
19 20 55 0
-19 -20 -55 0
14 17 20 0
-14 -17 -20 0
18 20 28 0
-18 -20 -28 0
19 20 42 0
-19 -20 -42 0
1 16 21 0
-1 -16 -21 0
15 17 21 0
-15 -17 -21 0
18 21 29 0
-18 -21 -29 0
19 21 43 0
-19 -21 -43 0
2 16 22 0
-2 -16 -22 0
16 17 22 0
-16 -17 -22 0
18 22 30 0
-18 -22 -30 0
19 22 44 0
-19 -22 -44 0
3 16 23 0
-3 -16 -23 0
17 23 0
-17 -23 0
18 23 31 0
-18 -23 -31 0
19 23 45 0
-19 -23 -45 0
4 16 24 0
-4 -16 -24 0
17 18 24 0
-17 -18 -24 0
18 24 32 0
-18 -24 -32 0
19 24 46 0
-19 -24 -46 0
5 16 25 0
-5 -16 -25 0
17 19 25 0
-17 -19 -25 0
18 25 33 0
-18 -25 -33 0
19 25 47 0
-19 -25 -47 0
6 16 26 0
-6 -16 -26 0
17 20 26 0
-17 -20 -26 0
18 26 34 0
-18 -26 -34 0
19 26 48 0
-19 -26 -48 0
7 16 27 0
-7 -16 -27 0
17 21 27 0
-17 -21 -27 0
18 27 35 0
-18 -27 -35 0
19 27 49 0
-19 -27 -49 0
8 16 28 0
-8 -16 -28 0
17 22 28 0
-17 -22 -28 0
18 28 36 0
-18 -28 -36 0
19 28 50 0
-19 -28 -50 0
9 16 29 0
-9 -16 -29 0
17 23 29 0
-17 -23 -29 0
18 29 37 0
-18 -29 -37 0
19 29 51 0
-19 -29 -51 0
10 16 30 0
-10 -16 -30 0
17 24 30 0
-17 -24 -30 0
18 30 38 0
-18 -30 -38 0
19 30 52 0
-19 -30 -52 0
11 16 31 0
-11 -16 -31 0
17 25 31 0
-17 -25 -31 0
18 31 39 0
-18 -31 -39 0
19 31 53 0
-19 -31 -53 0
12 16 32 0
-12 -16 -32 0
17 26 32 0
-17 -26 -32 0
18 32 40 0
-18 -32 -40 0
19 32 54 0
-19 -32 -54 0
13 16 33 0
-13 -16 -33 0
17 27 33 0
-17 -27 -33 0
18 33 41 0
-18 -33 -41 0
19 33 55 0
-19 -33 -55 0
14 16 34 0
-14 -16 -34 0
17 28 34 0
-17 -28 -34 0
18 34 42 0
-18 -34 -42 0
1 15 35 0
-1 -15 -35 0
15 16 35 0
-15 -16 -35 0
17 29 35 0
-17 -29 -35 0
18 35 43 0
-18 -35 -43 0
2 15 36 0
-2 -15 -36 0
16 36 0
-16 -36 0
17 30 36 0
-17 -30 -36 0
18 36 44 0
-18 -36 -44 0
3 15 37 0
-3 -15 -37 0
16 17 37 0
-16 -17 -37 0
17 31 37 0
-17 -31 -37 0
18 37 45 0
-18 -37 -45 0
4 15 38 0
-4 -15 -38 0
16 18 38 0
-16 -18 -38 0
17 32 38 0
-17 -32 -38 0
18 38 46 0
-18 -38 -46 0
5 15 39 0
-5 -15 -39 0
16 19 39 0
-16 -19 -39 0
17 33 39 0
-17 -33 -39 0
18 39 47 0
-18 -39 -47 0
6 15 40 0
-6 -15 -40 0
16 20 40 0
-16 -20 -40 0
17 34 40 0
-17 -34 -40 0
18 40 48 0
-18 -40 -48 0
7 15 41 0
-7 -15 -41 0
16 21 41 0
-16 -21 -41 0
17 35 41 0
-17 -35 -41 0
18 41 49 0
-18 -41 -49 0
8 15 42 0
-8 -15 -42 0
16 22 42 0
-16 -22 -42 0
17 36 42 0
-17 -36 -42 0
18 42 50 0
-18 -42 -50 0
9 15 43 0
-9 -15 -43 0
16 23 43 0
-16 -23 -43 0
17 37 43 0
-17 -37 -43 0
18 43 51 0
-18 -43 -51 0
10 15 44 0
-10 -15 -44 0
16 24 44 0
-16 -24 -44 0
17 38 44 0
-17 -38 -44 0
18 44 52 0
-18 -44 -52 0
11 15 45 0
-11 -15 -45 0
16 25 45 0
-16 -25 -45 0
17 39 45 0
-17 -39 -45 0
18 45 53 0
-18 -45 -53 0
12 15 46 0
-12 -15 -46 0
16 26 46 0
-16 -26 -46 0
17 40 46 0
-17 -40 -46 0
18 46 54 0
-18 -46 -54 0
13 15 47 0
-13 -15 -47 0
16 27 47 0
-16 -27 -47 0
17 41 47 0
-17 -41 -47 0
18 47 55 0
-18 -47 -55 0
14 15 48 0
-14 -15 -48 0
16 28 48 0
-16 -28 -48 0
17 42 48 0
-17 -42 -48 0
1 14 49 0
-1 -14 -49 0
15 49 0
-15 -49 0
16 29 49 0
-16 -29 -49 0
17 43 49 0
-17 -43 -49 0
2 14 50 0
-2 -14 -50 0
15 16 50 0
-15 -16 -50 0
16 30 50 0
-16 -30 -50 0
17 44 50 0
-17 -44 -50 0
3 14 51 0
-3 -14 -51 0
15 17 51 0
-15 -17 -51 0
16 31 51 0
-16 -31 -51 0
17 45 51 0
-17 -45 -51 0
4 14 52 0
-4 -14 -52 0
15 18 52 0
-15 -18 -52 0
16 32 52 0
-16 -32 -52 0
17 46 52 0
-17 -46 -52 0
5 14 53 0
-5 -14 -53 0
15 19 53 0
-15 -19 -53 0
16 33 53 0
-16 -33 -53 0
17 47 53 0
-17 -47 -53 0
6 14 54 0
-6 -14 -54 0
15 20 54 0
-15 -20 -54 0
16 34 54 0
-16 -34 -54 0
17 48 54 0
-17 -48 -54 0
7 14 55 0
-7 -14 -55 0
15 21 55 0
-15 -21 -55 0
16 35 55 0
-16 -35 -55 0
17 49 55 0
-17 -49 -55 0
