certificates/rado_a14_c244_N55.drat
-49 -51 -54 -55 0
-51 -52 -54 -55 0
-15 -52 -53 -54 0
-52 -53 -54 -55 0
15 52 -54 -55 0
-53 -54 -55 0
d -52 -53 -54 -55 0
-15 53 -54 0
-54 -55 0
d -53 -54 -55 0
15 -55 0
d 15 52 -54 -55 0
17 -55 0
-55 0
-17 -15 0
d -17 -51 -15 0
-15 0
49 0
21 0
-17 0
11 0
23 0
51 0
9 0
-1 0
35 0
7 0
-18 0
10 0
26 0
47 0
52 0
25 0
24 0
12 0
-20 0
-2 0
-19 0
53 0
54 0
0
